NAME : rnd20_20.tsp
TYPE : TSP
DIMENSION : 20
EDGE_WEIGHT_TYPE : EUC_2D
NODE_COORD_SECTION
1 548 897
2 145 205
3 202 295
4 852 349
5 822 678
6 376 815
7 949 766
8 381 596
9 520 987
10 587 210
11 465 426
12 293 927
13 755 236
14 248 899
15 211 704
16 164 670
17 773 365
18 130 581
19 792 991
20 206 176
